1
1000
249
498 1
498 1
493 1
493 1
490 1
488 1
488 1
487 1
483 1
483 1
482 1
482 1
481 1
480 1
479 1
479 1
476 1
475 1
469 1
468 1
466 1
465 1
464 1
459 1
459 1
455 1
454 1
451 1
450 1
449 1
449 1
448 1
447 1
445 1
442 1
442 1
438 1
436 1
436 1
435 1
429 1
411 1
408 1
407 1
406 1
405 1
404 1
404 1
403 1
402 1
402 1
402 1
401 1
401 1
398 1
396 1
396 1
395 1
395 1
391 1
389 1
388 1
386 1
385 1
383 1
383 1
382 1
382 1
380 1
379 1
378 1
378 1
378 1
377 1
371 1
371 1
369 1
367 1
366 1
365 1
363 1
363 1
363 1
362 1
361 1
360 1
359 1
358 1
357 1
355 1
351 1
351 1
350 1
349 1
348 1
347 1
346 1
346 1
345 1
343 1
340 1
339 1
338 1
336 1
335 1
334 1
334 1
334 1
334 1
331 1
326 1
325 1
325 1
324 1
320 1
320 1
320 1
319 1
319 1
317 1
317 1
317 1
317 1
314 1
313 1
313 1
312 1
309 1
308 1
308 1
307 1
306 1
305 1
301 1
300 1
300 1
298 1
295 1
295 1
293 1
291 1
289 1
288 1
287 1
286 1
286 1
286 1
285 1
284 1
283 1
283 1
281 1
279 1
279 1
278 1
278 1
278 1
278 1
277 1
276 1
276 1
276 1
275 1
275 1
275 1
275 1
275 1
275 1
275 1
274 1
273 1
271 1
271 1
271 1
270 1
270 1
270 1
270 1
270 1
269 1
269 1
269 1
269 1
268 1
268 1
267 1
267 1
267 1
267 1
266 1
266 1
266 1
265 1
264 1
264 1
264 1
264 1
263 1
263 1
263 1
263 1
263 1
262 1
262 1
262 1
261 1
261 1
261 1
260 1
260 1
260 1
260 1
259 1
259 1
259 1
258 1
258 1
258 1
257 1
257 1
257 1
256 1
256 1
255 1
255 1
255 1
255 1
254 1
254 1
254 1
254 1
253 1
252 1
252 1
252 1
252 1
252 1
252 1
251 1
251 1
251 1
250 1
250 1
250 1
250 1
250 1
250 1
250 1
250 1
